0000000000000000
0010000000110000
0111000001111000
0011000001111100
0001100000111000
0001110000011000
0001111000011000
0001111100110000
0001100111100000
0001100011100000
0001100001110000
0011000000111000
0011100000011100
0011110000011100
0001100000001000
0000000000000000
